% demand
num_movements = 15;
loading_factor = [1750, 1700, 1600, 1950, 1550, 950, 1050, 850, 1300, 1150, 1550, 1100, 1650, 1250, 1200];
pickup_time = [0, 0, 0, 0, 2, 2, 2, 4, 4, 4, 5, 6, 7, 7, 7];
delivery_time = [4, 5, 2, 2, 3, 5, 7, 7, 7, 7, 8, 7, 8, 8, 8];

% transporter definition
total_capacity = 7000;
num_decks = 3;
capacity = [3000, 1000, 3000];

% ways out of decks
num_ways_out = 1;
paths_out = array3d(decks, ways_out, decks, [
% ways out of deck d1
2, 3, 0, 

% ways out of deck d2
3, 0, 0, 

% ways out of deck d3
0, 0, 0,	

]);

